Data path: /scratch/opt/lxu/CFLG/benchmarks/tree_A
Instance: treeA.200.10
Result path: /scratch/opt/lxu/CFLG/results/tree_A
Solver: Gurobi
Time limit: 7200
Formulation: LEFP
Cover: Small
julia --project=. src/main.jl /scratch/opt/lxu/CFLG/benchmarks/tree_A treeA.200.10 /scratch/opt/lxu/CFLG/results/tree_A Gurobi 7200 LEFP Small
The latest version of Julia in the `release` channel is 1.11.5+0.x64.linux.gnu. You currently have `1.11.4+0.x64.linux.gnu` installed. Run:

  juliaup update

in your terminal shell to install Julia 1.11.5+0.x64.linux.gnu and update the `release` channel to that version.
/scratch/opt/lxu/CFLG/benchmarks/tree_A Gurobi 7200.0 /scratch/opt/lxu/CFLG/results/tree_A treeA.200.10 LEFP Small
/scratch/opt/lxu/CFLG/benchmarks/tree_A/treeA.200.10

 read graph
data loaded


after absorb:123 200

max_piece:20
problem_graph/original graph: node: 123/200 edge: 132/209 dlt: 0.375947441626396 break_avg_len: 2.3810004636338404 break_max_len: 7.239167709824063Set parameter TokenServer to value "solice01.zib.de"
Set parameter Threads to value 1
Set parameter OutputFlag to value 1
Gurobi Optimizer version 12.0.1 build v12.0.1rc0 (linux64 - "Debian GNU/Linux 12 (bookworm)")

CPU model: Intel(R) Xeon(R) Gold 5222 CPU @ 3.80GHz, instruction set [SSE2|AVX|AVX2|AVX512]
Thread count: 8 physical cores, 16 logical processors, using up to 1 threads

Non-default parameters:
Threads  1

Optimize a model with 255 rows, 396 columns and 660 nonzeros
Model fingerprint: 0x5a58fce4
Coefficient statistics:
  Matrix range     [1e+00, 1e+00]
  Objective range  [1e+00, 1e+00]
  Bounds range     [1e+00, 1e+00]
  RHS range        [1e+00, 1e+00]
Presolve removed 255 rows and 396 columns
Presolve time: 0.00s
Presolve: All rows and columns removed
Iteration    Objective       Primal Inf.    Dual Inf.      Time
       0    6.5000000e+01   0.000000e+00   0.000000e+00      0s

Solved in 0 iterations and 0.00 seconds (0.00 work units)
Optimal objective  6.500000000e+01

User-callback calls 36, time in user-callback 0.00 sec
elapsed CPU time: 0.973913 seconds
Set parameter TokenServer to value "solice01.zib.de"
Set parameter Threads to value 1
Set parameter OutputFlag to value 1
Set parameter MIPGap to value 0.0001
Set parameter MIPGapAbs to value 0.999998
Set parameter TimeLimit to value 7199.026087

 more cuts: false 0.375947441626396 false
is_attach:falseformulation:LEFP132 0 0

 model loaded

Gurobi Optimizer version 12.0.1 build v12.0.1rc0 (linux64 - "Debian GNU/Linux 12 (bookworm)")

CPU model: Intel(R) Xeon(R) Gold 5222 CPU @ 3.80GHz, instruction set [SSE2|AVX|AVX2|AVX512]
Thread count: 8 physical cores, 16 logical processors, using up to 1 threads

Non-default parameters:
TimeLimit  7199.026087
MIPGapAbs  0.999998
Threads  1

Optimize a model with 2027 rows, 1293 columns and 3931 nonzeros
Model fingerprint: 0xf0bca1f6
Variable types: 387 continuous, 906 integer (906 binary)
Coefficient statistics:
  Matrix range     [4e-03, 1e+00]
  Objective range  [1e+00, 1e+00]
  Bounds range     [4e-01, 7e+00]
  RHS range        [2e-02, 7e+00]
Presolve removed 1526 rows and 764 columns
Presolve time: 0.01s
Presolved: 501 rows, 529 columns, 1508 nonzeros
Variable types: 245 continuous, 284 integer (284 binary)
Found heuristic solution: objective 423.0000000
Found heuristic solution: objective 421.0000000

Root relaxation: objective 3.901066e+02, 521 iterations, 0.00 seconds (0.00 work units)

    Nodes    |    Current Node    |     Objective Bounds      |     Work
 Expl Unexpl |  Obj  Depth IntInf | Incumbent    BestBd   Gap | It/Node Time

     0     0  390.10659    0  148  421.00000  390.10659  7.34%     -    0s
     0     0  402.11065    0  146  421.00000  402.11065  4.49%     -    0s
H    0     0                     417.0000000  402.12333  3.57%     -    0s
     0     0  402.12430    0  145  417.00000  402.12430  3.57%     -    0s
     0     0  402.12432    0  143  417.00000  402.12432  3.57%     -    0s
     0     0  406.22075    0  116  417.00000  406.22075  2.58%     -    0s
     0     0  406.22906    0  120  417.00000  406.22906  2.58%     -    0s
     0     0  406.55581    0  100  417.00000  406.55581  2.50%     -    0s
     0     0  406.77093    0  107  417.00000  406.77093  2.45%     -    0s
     0     0  406.77093    0  115  417.00000  406.77093  2.45%     -    0s
     0     0  407.21832    0  106  417.00000  407.21832  2.35%     -    0s
     0     0  407.23219    0  110  417.00000  407.23219  2.34%     -    0s
     0     0  407.48691    0   98  417.00000  407.48691  2.28%     -    0s
     0     0  407.69451    0  120  417.00000  407.69451  2.23%     -    0s
     0     0  407.78559    0  120  417.00000  407.78559  2.21%     -    0s
     0     0  407.78954    0  129  417.00000  407.78954  2.21%     -    0s
     0     0  408.00394    0  117  417.00000  408.00394  2.16%     -    0s
     0     0  408.03112    0  127  417.00000  408.03112  2.15%     -    0s
     0     0  408.08961    0  125  417.00000  408.08961  2.14%     -    0s
     0     0  408.10695    0   87  417.00000  408.10695  2.13%     -    0s
     0     2  408.45696    0   87  417.00000  408.45696  2.05%     -    0s
H  135   105                     416.0000000  408.45696  1.81%   9.3    0s
H  407   256                     415.0000000  408.79275  1.50%   9.4    0s
H  616   377                     414.0000000  410.22248  0.91%   8.5    0s

Cutting planes:
  Learned: 2
  Gomory: 21
  Cover: 118
  Implied bound: 19
  Clique: 1
  MIR: 70
  Mixing: 3
  StrongCG: 3
  Flow cover: 132
  GUB cover: 4
  Inf proof: 1
  Zero half: 10
  RLT: 6
  Relax-and-lift: 5

Explored 1163 nodes (30944 simplex iterations) in 2.19 seconds (1.31 work units)
Thread count was 1 (of 16 available processors)

Solution count 6: 414 415 416 ... 423

Optimal solution found (tolerance 1.00e-04)
Best objective 4.140000000000e+02, best bound 4.140000000000e+02, gap 0.0000%

User-callback calls 4230, time in user-callback 0.00 sec

 sepatime0 0 0
414.0Stat(MathOptInterface.OPTIMAL, 414.0, 414.0, 0.0, 0.0, 0.973913, 2.193264961242676, 1163, Main.CFLG.LEFP, "", #undef)
ERROR: LoadError: SystemError: opening file "/scratch/opt/lxu/CFLG/results/tree_A/treeA.200.10.LEFP.Small": No such file or directory
Stacktrace:
 [1] systemerror(p::String, errno::Int32; extrainfo::Nothing)
   @ Base ./error.jl:176
 [2] systemerror
   @ ./error.jl:175 [inlined]
 [3] open(fname::String; lock::Bool, read::Nothing, write::Nothing, create::Nothing, truncate::Bool, append::Nothing)
   @ Base ./iostream.jl:295
 [4] open
   @ ./iostream.jl:277 [inlined]
 [5] open(fname::String, mode::String; lock::Bool)
   @ Base ./iostream.jl:358
 [6] open
   @ ./iostream.jl:357 [inlined]
 [7] main(args::Vector{String})
   @ Main /scratch/opt/lxu/CFLG/src/main.jl:51
 [8] top-level scope
   @ /scratch/opt/lxu/CFLG/src/main.jl:57
in expression starting at /scratch/opt/lxu/CFLG/src/main.jl:57
srun: error: htc-cmp485: task 0: Exited with exit code 1
